(declare-rel fail ())
(declare-rel inv2 (Int Int Int Int Int))
(declare-var A Int)
(declare-var B Int)
(declare-var C Int)
(declare-var D Int)
(declare-var E Int)
(declare-var F Int)
(declare-var G Int)
(declare-var H Int)
(declare-var I Int)
(rule (=> (and (= G 52) (= B 97) (= I (- 76)) (= D 0) (> A 0) (>= 80914 A))
    (inv2 G B I D A)))
(rule (let ((a!1 (= E (+ (* (- 5) G) (* 3 B) (* 4 I) (- 8754)))))
(let ((a!2 (and (inv2 G B I D A)
                (= C (- 13 (* 7 G)))
                (= H (- 54 (* 2 B)))
                a!1
                (= F (ite (> E 0) (- D G) D)))))
  (=> a!2 (inv2 C H E F A)))))
(rule (=> (and (inv2 G B I D A) (>= B A) (not (> D 0))) fail))
(query fail)

